sat
(:elim-unconstrained  1
 :max-memory          18.43
 :memory              18.33
 :nlsat-arith-var     3
 :nlsat-atoms         7
 :nlsat-bool-var      1
 :nlsat-clauses       7
 :nlsat-propagations  7
 :nlsat-stages        4
 :num-allocs          50628
 :rlimit-count        570
 :solve-eqs-elim-vars 1
 :solve-eqs-steps     1
 :time                0.00
 :total-time          0.01)
